;; Mutation-Based Equivalence Benchmark
;; Source:     AutomatArk / instance07255.smt2
;; Mutations:  intersect_no_dot_dot
;; Status:     sat
;;
;; Original regex vs mutated regex
;; Equivalence check: unsat ⟺ L(R1) = L(R2)

(set-info :smt-lib-version 2.6)
(set-info :category "mutation")
(set-info :status sat)
(set-logic QF_S)

(declare-const x String)

;; R1: original
;; R2: mutated (intersect_no_dot_dot)
(assert
  (str.in_re x
    (re.union (re.inter (re.++ (re.union (re.++ (str.to_re "A") (re.union (str.to_re "L") (str.to_re "K") (str.to_re "S") (str.to_re "Z") (str.to_re "R"))) (re.++ (str.to_re "C") (re.union (str.to_re "A") (str.to_re "O") (str.to_re "T"))) (re.++ (str.to_re "D") (re.union (str.to_re "E") (str.to_re "C"))) (re.++ (str.to_re "F") (re.union (str.to_re "M") (str.to_re "L"))) (re.++ (str.to_re "G") (re.union (str.to_re "A") (str.to_re "U"))) (str.to_re "HI") (re.++ (str.to_re "I") (re.union (str.to_re "D") (str.to_re "L") (str.to_re "N") (str.to_re "A"))) (re.++ (str.to_re "K") (re.union (str.to_re "S") (str.to_re "Y"))) (str.to_re "LA") (re.++ (str.to_re "M") (re.union (str.to_re "E") (str.to_re "H") (str.to_re "D") (str.to_re "A") (str.to_re "I") (str.to_re "N") (str.to_re "S") (str.to_re "O") (str.to_re "T"))) (re.++ (str.to_re "N") (re.union (str.to_re "E") (str.to_re "V") (str.to_re "H") (str.to_re "J") (str.to_re "M") (str.to_re "Y") (str.to_re "C") (str.to_re "D"))) (str.to_re "MP") (re.++ (str.to_re "O") (re.union (str.to_re "H") (str.to_re "K") (str.to_re "R"))) (re.++ (str.to_re "P") (re.union (str.to_re "W") (str.to_re "A") (str.to_re "R"))) (str.to_re "RI") (re.++ (str.to_re "S") (re.union (str.to_re "C") (str.to_re "D"))) (re.++ (str.to_re "T") (re.union (str.to_re "N") (str.to_re "X"))) (str.to_re "UT") (re.++ (str.to_re "V") (re.union (str.to_re "T") (str.to_re "I") (str.to_re "A"))) (re.++ (str.to_re "W") (re.union (str.to_re "A") (str.to_re "V") (str.to_re "I") (str.to_re "Y")))) (str.to_re "\u{a}")) (re.comp (re.++ (re.union (re.++ (str.to_re "A") (re.union (str.to_re "L") (str.to_re "K") (str.to_re "S") (str.to_re "Z") (str.to_re "R"))) (re.++ (str.to_re "C") (re.union (str.to_re "A") (str.to_re "O") (str.to_re "T"))) (re.++ (str.to_re "D") (re.union (str.to_re "E") (str.to_re "C"))) (re.++ (str.to_re "F") (re.union (str.to_re "M") (str.to_re "L"))) (re.++ (str.to_re "G") (re.union (str.to_re "A") (str.to_re "U"))) (str.to_re "HI") (re.++ (str.to_re "I") (re.union (str.to_re "D") (str.to_re "L") (str.to_re "N") (str.to_re "A"))) (re.++ (str.to_re "K") (re.union (str.to_re "S") (str.to_re "Y"))) (str.to_re "LA") (re.++ (str.to_re "M") (re.union (str.to_re "E") (str.to_re "H") (str.to_re "D") (str.to_re "A") (str.to_re "I") (str.to_re "N") (str.to_re "S") (str.to_re "O") (str.to_re "T"))) (re.++ (str.to_re "N") (re.union (str.to_re "E") (str.to_re "V") (str.to_re "H") (str.to_re "J") (str.to_re "M") (str.to_re "Y") (str.to_re "C") (str.to_re "D"))) (str.to_re "MP") (re.++ (str.to_re "O") (re.union (str.to_re "H") (str.to_re "K") (str.to_re "R"))) (re.inter (re.++ (str.to_re "P") (re.union (str.to_re "W") (str.to_re "A") (str.to_re "R"))) (re.comp (re.++ re.all (str.to_re "..") re.all))) (str.to_re "RI") (re.++ (str.to_re "S") (re.union (str.to_re "C") (str.to_re "D"))) (re.++ (str.to_re "T") (re.union (str.to_re "N") (str.to_re "X"))) (str.to_re "UT") (re.++ (str.to_re "V") (re.union (str.to_re "T") (str.to_re "I") (str.to_re "A"))) (re.++ (str.to_re "W") (re.union (str.to_re "A") (str.to_re "V") (str.to_re "I") (str.to_re "Y")))) (str.to_re "\u{a}")))) (re.inter (re.comp (re.++ (re.union (re.++ (str.to_re "A") (re.union (str.to_re "L") (str.to_re "K") (str.to_re "S") (str.to_re "Z") (str.to_re "R"))) (re.++ (str.to_re "C") (re.union (str.to_re "A") (str.to_re "O") (str.to_re "T"))) (re.++ (str.to_re "D") (re.union (str.to_re "E") (str.to_re "C"))) (re.++ (str.to_re "F") (re.union (str.to_re "M") (str.to_re "L"))) (re.++ (str.to_re "G") (re.union (str.to_re "A") (str.to_re "U"))) (str.to_re "HI") (re.++ (str.to_re "I") (re.union (str.to_re "D") (str.to_re "L") (str.to_re "N") (str.to_re "A"))) (re.++ (str.to_re "K") (re.union (str.to_re "S") (str.to_re "Y"))) (str.to_re "LA") (re.++ (str.to_re "M") (re.union (str.to_re "E") (str.to_re "H") (str.to_re "D") (str.to_re "A") (str.to_re "I") (str.to_re "N") (str.to_re "S") (str.to_re "O") (str.to_re "T"))) (re.++ (str.to_re "N") (re.union (str.to_re "E") (str.to_re "V") (str.to_re "H") (str.to_re "J") (str.to_re "M") (str.to_re "Y") (str.to_re "C") (str.to_re "D"))) (str.to_re "MP") (re.++ (str.to_re "O") (re.union (str.to_re "H") (str.to_re "K") (str.to_re "R"))) (re.++ (str.to_re "P") (re.union (str.to_re "W") (str.to_re "A") (str.to_re "R"))) (str.to_re "RI") (re.++ (str.to_re "S") (re.union (str.to_re "C") (str.to_re "D"))) (re.++ (str.to_re "T") (re.union (str.to_re "N") (str.to_re "X"))) (str.to_re "UT") (re.++ (str.to_re "V") (re.union (str.to_re "T") (str.to_re "I") (str.to_re "A"))) (re.++ (str.to_re "W") (re.union (str.to_re "A") (str.to_re "V") (str.to_re "I") (str.to_re "Y")))) (str.to_re "\u{a}"))) (re.++ (re.union (re.++ (str.to_re "A") (re.union (str.to_re "L") (str.to_re "K") (str.to_re "S") (str.to_re "Z") (str.to_re "R"))) (re.++ (str.to_re "C") (re.union (str.to_re "A") (str.to_re "O") (str.to_re "T"))) (re.++ (str.to_re "D") (re.union (str.to_re "E") (str.to_re "C"))) (re.++ (str.to_re "F") (re.union (str.to_re "M") (str.to_re "L"))) (re.++ (str.to_re "G") (re.union (str.to_re "A") (str.to_re "U"))) (str.to_re "HI") (re.++ (str.to_re "I") (re.union (str.to_re "D") (str.to_re "L") (str.to_re "N") (str.to_re "A"))) (re.++ (str.to_re "K") (re.union (str.to_re "S") (str.to_re "Y"))) (str.to_re "LA") (re.++ (str.to_re "M") (re.union (str.to_re "E") (str.to_re "H") (str.to_re "D") (str.to_re "A") (str.to_re "I") (str.to_re "N") (str.to_re "S") (str.to_re "O") (str.to_re "T"))) (re.++ (str.to_re "N") (re.union (str.to_re "E") (str.to_re "V") (str.to_re "H") (str.to_re "J") (str.to_re "M") (str.to_re "Y") (str.to_re "C") (str.to_re "D"))) (str.to_re "MP") (re.++ (str.to_re "O") (re.union (str.to_re "H") (str.to_re "K") (str.to_re "R"))) (re.inter (re.++ (str.to_re "P") (re.union (str.to_re "W") (str.to_re "A") (str.to_re "R"))) (re.comp (re.++ re.all (str.to_re "..") re.all))) (str.to_re "RI") (re.++ (str.to_re "S") (re.union (str.to_re "C") (str.to_re "D"))) (re.++ (str.to_re "T") (re.union (str.to_re "N") (str.to_re "X"))) (str.to_re "UT") (re.++ (str.to_re "V") (re.union (str.to_re "T") (str.to_re "I") (str.to_re "A"))) (re.++ (str.to_re "W") (re.union (str.to_re "A") (str.to_re "V") (str.to_re "I") (str.to_re "Y")))) (str.to_re "\u{a}"))))))

(check-sat)
(exit)
